(set-info :smt-lib-version 2.6)
(set-logic QF_S)
(set-info :source |
Generated by: Joel Day, Thorsten Ehlers, Mitja Kulczynski, Federico Mora, Florin Manea, Dirk Nowotka, Danny Poulsen, Zhengyang Lu
Application: Test WOORPJE
Target solver: WOORPJE
Publications: Day, J. D., Ehlers, T., Kulczynski, M., Manea, F., Nowotka, D., & Poulsen, D. B. (2019). On solving word equations using SAT. In RP 2019
Description: Consisting of a system of 100 small random word equations with at most 6 letters, 10 variables and length 60.
|)
(set-info :license "https://creativecommons.org/licenses/by/4.0/")
(set-info :category "random")
(set-info :status unknown)

(declare-fun C () String)
(declare-fun E () String)
(assert (= (str.++  "dafbedecacebecaddcdabdcd" E "bdaefeddadaafdadececbfdcfbaadabfc")  (str.++  C "aeaabdaefadccfacebdaefeddadaafdadececbfdcfbaadabfc" "") ))
(assert (= (str.++  "debcdecaaaabddcbcdbfada" E "beafacbe")  (str.++  "debc" C "ececfefffffedfcbfbfacbeafacbe") ))
(assert (= (str.++  "adebfabedabedfbfbccdaadbfcdaedeecdece" E "ddcdccbfbcebbadbccdbceceafbbedbdfdfbbfdc")  (str.++  "adebfabedabe" C "fbbfdc") ))
(assert (= (str.++  "ceefcbcec" E "cfacecdebfabeaaedfbebedecfdafeefaceaafefbcbaeadebebdeaddaadabcdaaabb")  (str.++  "ceefcbcec" E "cfacecdebfabeaaedfbebedecfdafeefaceaafefbcbaeadebebdeaddaadabcdaaabb") ))
(assert (= (str.++  "ceabbabebbe" E "aceefadcbcdafcacceaebafeaaeafacfabcdcccacdacbfdafbabfaaefdcfbdefdf")  (str.++  "ceabbabebbedbdaceefadcbcdafcacceaebafeaaeafacfabcdcccacdacbfdafbabfaaefdcfbdefdf" "") ))
(assert (= (str.++  "cecbdbdeafdfceeeaccfeedeebdeadfbadcffcdbeafacbfeaccdeaddacdeaaffcbedafdcacfaaccc" "")  (str.++  "cecb" E "eafdfceeeaccfeedeebdeadfbadcffcdbeafacbfeaccdeaddacdeaaffcbedafdcacfaaccc") ))
(assert (= (str.++  "beacfeadecfafaedfaecfffcdffaebeebcbfdddfadadbbb" E "aeacdccafbcdbaedbfbcdffabefaae")  (str.++  "beacfeadecfafaedfaecfffcdffaebeebcbfdddfadadbbb" E "aeacdccafbcdbaedbfbcdffabefaae") ))
(assert (= (str.++  "adfebfaeebfbfafcafedebbeabbcbfdcffddee" E "ddeabbefacdaeaecdcfafcbaceeefadbcbdaade")  (str.++  "adfebfaeebfbfafcafedebbeabbcbfdcffddee" E "ddeabbefacdaeaecdcfafcbaceeefadbcbdaade") ))
(assert (= (str.++  "ecbcfaecaacecfdcfceadfafecefabedbaeebdbdbbfababbfdefdcbaceeebfeaebbabbefcaecccab" "")  (str.++  "ecbcfaecaacecfdcfceadfafecefabedbaeeb" E "bbfababbfdefdcbaceeebfeaebbabbefcaecccab") ))
(assert (= (str.++  "deceaeddcfccefbadcaafcaceccbfefffdbdfcbcbaaaddbefbbfaeecaefaaedfaccbeeccdabecffe" "")  (str.++  "deceaeddcfccefbadcaafcaceccbfefff" E "fcbcbaaaddbefbbfaeecaefaaedfaccbeeccdabecffe") ))
(assert (= (str.++  "ebcfefeacadebabfbdfdcfeccbaacfaaabafebdcacacad" E "dbbbdaabdcdeadaddfddcbbeadbbfcb")  (str.++  "ebcfefeacadebabfbdfdcfeccbaacfaaabafebdcacacaddbddbbbdaabdcdeadaddfddcbbeadbbfcb" "") ))
(assert (= (str.++  "ebdfbccb" E "eedbbecbacdfabdcdafaacdffeecfbccceddebbfebadeaeaacecaaebbafaaaacbadbd")  (str.++  "ebdfbccbdbdeedbbecbacdfabdcdafaacdffeecfbccceddebbfebadeaeaacecaaebbafaaaacbadbd" "") ))
(assert (= (str.++  "cdbfddbbdbbccfcebaeaecefedfaeebfaecddbdbebfefcabbbcbfdbbafacbaeaceaeabacdaabcadb" "")  (str.++  "cdbfddbbdbbccfcebaeaecefedfaeebfaecd" E "bebfefcabbbcbfdbbafacbaeaceaeabacdaabcadb") ))
(assert (= (str.++  "fcfeafadecddceeaafefcdfddbddbdfceecdebdcebbefcdecadaaecedebeffaacfbbfadafecfaddf" "")  (str.++  "fcfeafadecddceeaafefcdfd" E "dbdfceecdebdcebbefcdecadaaecedebeffaacfbbfadafecfaddf") ))
(assert (= (str.++  "cfbfaebcaaffdecffbcdebdccbfdadcceccccfadbecaabfaebbdecedeacce" E "edaaaabeefedabde")  (str.++  "cfbfaebcaaffdecffbcdebdccbfdadcceccccfadbecaabfaebbdecedeacce" E "edaaaabeefedabde") ))
(assert (= (str.++  "aafbcffbbdcddedcdaebfdfdedcfadceadddfeaaeddbeaafbdbb" E "cdaaadbcccbdbbbbecefedfcc")  (str.++  "aafbcffbbdcddedcdaebfdfdedcfadceadddfeaaeddbeaafbdbbdbdcdaaadbcccbdbbbbecefedfcc" "") ))
(assert (= (str.++  "ecbeccfdbccccbcefbedfdbafbeabfcfbdecdfdf" E "cbecdedadfacffddbfcbffcfaeedafcbaeeff")  (str.++  "ecbeccfdbccccbcefbedfdbafbeabfcfbdecdfdf" E "cbecdedadfacffddbfcbffcfaeedafcbaeeff") ))
(assert (= (str.++  "addbdcfdecebdcdbbeaafcfddefdfcffcfaabdfadfadcccdbebadddacbeeffaddbaaafffceabbbfe" "")  (str.++  "ad" E "cfdecebdcdbbeaafcfddefdfcffcfaabdfadfadcccdbebadddacbeeffaddbaaafffceabbbfe") ))
(assert (= (str.++  "debadbafaecdaebdfbbbebdbcdbedbfad" E "cfbaccadeabaeeffaeacbecfceeaccbaadcdcfecedcc")  (str.++  "debadbafaecdaebdfbbbebdbcdbedbfad" E "cfbaccadeabaeeffaeacbecfceeaccbaadcdcfecedcc") ))
(assert (= (str.++  "ccdbcecafb" E "cadfabbcdbfbddfbccdffdfaacccdaeeacaebaedceaefeabddeacabcdbaeeaacccf")  (str.++  "ccdbcecafb" E "cadfabbcdbfbddfbccdffdfaacccdaeeacaebaedceaefeabddeacabcdbaeeaacccf") ))
(assert (= (str.++  "aaabebacadbfdcb" E "edbafcfaddedeeabdcdcceabfeefbbefccacffafcffabce" E "fcbaeebdefcd")  (str.++  "aaabebacadbfdcbdbdedbafcfaddedeeabdcdcceabfeefbbefccacffafcffabcedbdfcbaeebdefcd" "") ))
(assert (= (str.++  "dfddfefcdbcd" E "faebadacfaecbaacfdacecbcfebafffbededeacefbefbfdfcdefcddaaafdcafac")  (str.++  "dfddfefcdbcddbdfaebadacfaecbaacfdacecbcfebafffbededeacefbefbfdfcdefcddaaafdcafac" "") ))
(assert (= (str.++  "afbbfecceecbefeeafcabccaae" E "dcdcafeebfcdacebbfaccddddaeafbcabdaeebdfdeabedbbdbc")  (str.++  "afbbfecceecbefeeafcabccaaedbddcdcafeebfcdacebbfaccddddaeafbcabdaeebdfdeabedbbdbc" "") ))
(assert (= (str.++  "abfbcbebeaebbcebeebceafddbeabcbfeaebaccdcbefbfecdcefafecbfbcddbdffafaeabbecacffd" "")  (str.++  "abfbcbebeaebbcebeebceafddbeabcbfeaebaccdcbefbfecdcefafecbfbcd" E "ffafaeabbecacffd") ))
(assert (= (str.++  "bbeaab" E "bfeeafafbfbefececcddfdfabaaffabfacabfeeeacfadbfeadcfddefceafaaeffecfeae")  (str.++  "bbeaabdbdbfeeafafbfbefececcddfdfabaaffabfacabfeeeacfadbfeadcfddefceafaaeffecfeae" "") ))
(assert (= (str.++  "bcfefdfdaecceaceddbbbbebceabfadeaeedebeeebeeffdddeefabaaaebbecfabdfbed" E "fdfaaec")  (str.++  "bcfefdfdaecceaceddbbbbebceabfadeaeedebeeebeeffdddeefabaaaebbecfabdfbeddbdfdfaaec" "") ))
(check-sat)

(exit)
